[runlim] version:		2.0.0rc12
[runlim] host:			ap-Precision-7550
[runlim] time limit:		311040000 seconds
[runlim] real time limit:	600 seconds
[runlim] space limit:		14000 MB
[runlim] argv[0]:		python3
[runlim] argv[1]:		-u
[runlim] argv[2]:		mip.py
[runlim] argv[3]:		graph14
[runlim] start:			Thu Mar 26 05:05:12 2026
[runlim] child:			32294
--- Building MIP model for 916 variables ---
--- Solving with CPLEX MIP ---
Version identifier: 22.1.1.0 | 2022-11-28 | 9160aff4d
CPXPARAM_Read_DataCheck                          1
CPXPARAM_MIP_Tolerances_MIPGap                   0
Legacy callback                                  i
Tried aggregator 1 time.
MIP Presolve eliminated 385020 rows and 0 columns.
MIP Presolve modified 111353 coefficients.
Reduced MIP has 130673 rows, 36760 columns, and 684414 nonzeros.
Reduced MIP has 36760 binaries, 0 generals, 0 SOSs, and 0 indicators.
Presolve time = 3.34 sec. (2389.74 ticks)
Found incumbent of value 44.000000 after 4.79 sec. (4318.39 ticks)
Probing changed sense of 18358 constraints.
Probing time = 0.19 sec. (38.35 ticks)
Tried aggregator 1 time.
[runlim] sample:		17.85 time, 10.01 real, 521 MB, 1.85 load
MIP Presolve eliminated 55606 rows and 18358 columns.
MIP Presolve modified 67208 coefficients.
Reduced MIP has 75067 rows, 18402 columns, and 651086 nonzeros.
Reduced MIP has 18402 binaries, 0 generals, 0 SOSs, and 0 indicators.
Presolve time = 2.90 sec. (2139.54 ticks)
Probing time = 0.03 sec. (6.93 ticks)
Tried aggregator 1 time.
Detecting symmetries...
Reduced MIP has 75067 rows, 18402 columns, and 651086 nonzeros.
Reduced MIP has 18402 binaries, 0 generals, 0 SOSs, and 0 indicators.
Presolve time = 0.89 sec. (813.88 ticks)
Probing time = 0.03 sec. (6.90 ticks)
Clique table members: 75067.
MIP emphasis: balance optimality and feasibility.
MIP search method: dynamic search.
Parallel mode: deterministic, using up to 12 threads.
[runlim] sample:		85.30 time, 20.02 real, 943 MB, 2.58 load
[runlim] sample:		172.49 time, 30.01 real, 817 MB, 3.73 load
[runlim] sample:		203.24 time, 40.01 real, 788 MB, 3.69 load
[runlim] sample:		233.21 time, 50.01 real, 788 MB, 3.59 load
[runlim] sample:		254.48 time, 60.01 real, 788 MB, 3.34 load
Root relaxation solution time = 58.39 sec. (25054.43 ticks)

        Nodes                                         Cuts/
   Node  Left     Objective  IInf  Best Integer    Best Bound    ItCnt     Gap

*     0+    0                           44.0000        0.0000           100.00%
*     0+    0                           32.0000        0.0000           100.00%
*     0+    0                           16.0000        0.0000           100.00%
      0     0        8.0000  4774       16.0000        8.0000       15   50.00%

Num labels used: 16
Current incumbent solution: {58, 128, 156, 296, 366, 394, 414, 428, 442, 526, 554, 652, 666, 680, 764, 792}}
Time taken: 69.92s

Num labels used: 16
Current incumbent solution: {58, 128, 156, 296, 366, 394, 414, 428, 442, 526, 554, 652, 666, 680, 764, 792}}
Time taken: 69.94s
[runlim] sample:		269.46 time, 70.01 real, 782 MB, 3.06 load
[runlim] sample:		289.45 time, 80.01 real, 800 MB, 2.89 load
[runlim] sample:		309.45 time, 90.01 real, 857 MB, 2.75 load
[runlim] sample:		329.45 time, 100.01 real, 861 MB, 2.64 load
[runlim] sample:		349.44 time, 110.01 real, 851 MB, 2.54 load
[runlim] sample:		369.44 time, 120.01 real, 905 MB, 2.46 load
[runlim] sample:		389.44 time, 130.01 real, 893 MB, 2.39 load
[runlim] sample:		409.44 time, 140.01 real, 893 MB, 2.33 load
[runlim] sample:		429.43 time, 150.01 real, 903 MB, 2.28 load
[runlim] sample:		449.42 time, 160.01 real, 903 MB, 2.23 load
[runlim] sample:		469.42 time, 170.01 real, 908 MB, 2.20 load
[runlim] sample:		489.41 time, 180.01 real, 908 MB, 2.17 load
[runlim] sample:		509.41 time, 190.01 real, 908 MB, 2.14 load
[runlim] sample:		529.41 time, 200.01 real, 908 MB, 2.12 load
[runlim] sample:		549.41 time, 210.01 real, 908 MB, 2.10 load
[runlim] sample:		569.40 time, 220.01 real, 910 MB, 2.08 load
[runlim] sample:		589.40 time, 230.01 real, 910 MB, 2.07 load
[runlim] sample:		609.40 time, 240.01 real, 910 MB, 2.06 load
[runlim] sample:		629.39 time, 250.01 real, 910 MB, 2.05 load
[runlim] sample:		649.39 time, 260.01 real, 910 MB, 2.04 load
[runlim] sample:		669.38 time, 270.01 real, 910 MB, 2.03 load
[runlim] sample:		689.38 time, 280.01 real, 910 MB, 2.03 load
[runlim] sample:		709.38 time, 290.01 real, 910 MB, 2.02 load
[runlim] sample:		729.37 time, 300.01 real, 910 MB, 2.02 load
[runlim] sample:		749.37 time, 310.01 real, 910 MB, 2.02 load
[runlim] sample:		769.36 time, 320.01 real, 910 MB, 2.01 load
[runlim] sample:		789.36 time, 330.01 real, 910 MB, 2.01 load
[runlim] sample:		809.36 time, 340.01 real, 910 MB, 2.09 load
[runlim] sample:		829.36 time, 350.01 real, 910 MB, 2.23 load
[runlim] sample:		849.34 time, 360.01 real, 910 MB, 2.19 load
[runlim] sample:		869.34 time, 370.01 real, 910 MB, 2.16 load
[runlim] sample:		889.32 time, 380.01 real, 910 MB, 2.14 load
[runlim] sample:		909.32 time, 390.01 real, 910 MB, 2.12 load
[runlim] sample:		929.31 time, 400.01 real, 910 MB, 2.10 load
[runlim] sample:		949.30 time, 410.01 real, 910 MB, 2.08 load
[runlim] sample:		969.30 time, 420.01 real, 910 MB, 2.07 load
[runlim] sample:		989.30 time, 430.01 real, 910 MB, 2.06 load
[runlim] sample:		1009.30 time, 440.01 real, 910 MB, 2.05 load
[runlim] sample:		1029.30 time, 450.01 real, 910 MB, 2.04 load
[runlim] sample:		1049.30 time, 460.01 real, 910 MB, 2.03 load
[runlim] sample:		1069.29 time, 470.01 real, 910 MB, 2.03 load
[runlim] sample:		1089.29 time, 480.01 real, 910 MB, 2.02 load
[runlim] sample:		1109.29 time, 490.01 real, 910 MB, 2.02 load
[runlim] sample:		1129.29 time, 500.01 real, 910 MB, 2.02 load
[runlim] sample:		1149.28 time, 510.01 real, 910 MB, 2.01 load
[runlim] sample:		1169.28 time, 520.01 real, 910 MB, 2.01 load
[runlim] sample:		1189.28 time, 530.01 real, 910 MB, 2.01 load
[runlim] sample:		1209.28 time, 540.01 real, 910 MB, 2.01 load
[runlim] sample:		1229.28 time, 550.01 real, 910 MB, 2.01 load
[runlim] sample:		1249.27 time, 560.01 real, 910 MB, 2.00 load
[runlim] sample:		1269.27 time, 570.01 real, 910 MB, 2.00 load
[runlim] sample:		1289.27 time, 580.01 real, 910 MB, 2.00 load
[runlim] sample:		1309.27 time, 590.01 real, 910 MB, 2.00 load
[runlim] sample:		1329.27 time, 600.01 real, 910 MB, 2.00 load
[runlim] end:			Thu Mar 26 05:15:14 2026
[runlim] status:		out of time
[runlim] result:		2
[runlim] children:		1
[runlim] processes:		2
[runlim] real:			601.06 seconds
[runlim] time:			1329.27 seconds
[runlim] space:			943 MB
[runlim] load:			3.73 maximum
[runlim] samples:		6000
